units          lj
dimension      2
atom_style     molecular
read_data      /Users/christian/PhD/software/MINE_CLEAN/treadmilling_filaments/MD/Create_sim_files/MC_One_Filament/Tau_1000.0_mu_6.0_PBB_0.8_Lx_50.0_Ly_50.0/Config_MC/MC_OneFilament_Tau_1000.0_mu_6.0_PBB_0.8_Lx_50.0_Ly_50.0_Nsim_1_config.txt extra/bond/per/atom 5  extra/special/per/atom 20  extra/angle/per/atom 3
Reading data file ...
  orthogonal box = (-50 -50 -0.3) to (50 50 0.3)
  1 by 1 by 1 MPI processor grid
  reading atoms ...
  2 atoms
  scanning bonds ...
  6 = max bonds/atom
  reading bonds ...
  1 bonds
Finding 1-2 1-3 1-4 neighbors ...
  special bond factors lj:    0        0        0       
  special bond factors coul:  0        0        0       
     1 = max # of 1-2 neighbors
     0 = max # of 1-3 neighbors
     0 = max # of 1-4 neighbors
    21 = max # of special neighbors
  special bonds CPU = 0.000 seconds
  read_data CPU = 0.010 seconds

fix            Twodim all enforce2d


variable       vMaskGMonomers atom "type==4"
group          GMonomers dynamic all  var vMaskGMonomers  every 1
dynamic group GMonomers defined


variable       vMaskTails atom "type==3"
group          Tails dynamic all  var vMaskTails  every 1
dynamic group Tails defined


variable       vMaskHeads atom "type==1"
group          Heads dynamic all  var vMaskHeads  every 1
dynamic group Heads defined


variable       vMaskFilamentBulk atom "type==2"
group          FilamentBulk dynamic all  var vMaskFilamentBulk  every 1
dynamic group FilamentBulk defined


variable       vMaskPolymerisation0Group atom "type==4"
group          Polymerisation0Group dynamic all  var vMaskPolymerisation0Group  every 4
dynamic group Polymerisation0Group defined


variable       vMaskPolymerisation1Group atom "type==4 || type==1"
group          Polymerisation1Group dynamic all  var vMaskPolymerisation1Group  every 4
dynamic group Polymerisation1Group defined


variable       vMaskDumpGroup atom "type==3 || type==1 || type==2"
group          DumpGroup dynamic all  var vMaskDumpGroup  every 10
dynamic group DumpGroup defined


variable       vMaskDepolymerisation0Group atom "type==2 || type==3"
group          Depolymerisation0Group dynamic all  var vMaskDepolymerisation0Group  every 4
dynamic group Depolymerisation0Group defined


variable       vMaskDepolymerisation3Group atom "type==1 || type==3"
group          Depolymerisation3Group dynamic all  var vMaskDepolymerisation3Group  every 4
dynamic group Depolymerisation3Group defined


neighbor       3.0 bin
neigh_modify   every 4 delay 0
comm_modify    cutoff 10


special_bonds  lj 1.0 1.0 1.0
Finding 1-2 1-3 1-4 neighbors ...
  special bond factors lj:    1        1        1       
  special bond factors coul:  0        0        0       
     1 = max # of 1-2 neighbors
     0 = max # of 1-3 neighbors
     0 = max # of 1-4 neighbors
    21 = max # of special neighbors
  special bonds CPU = 0.000 seconds
bond_style     harmonic
bond_coeff     1 500.0 1.0


angle_style    harmonic
angle_coeff    * 500.0 180.0


pair_style     hybrid/overlay  cosine/squared 1.00  zero 1.50
pair_coeff     * * cosine/squared 10.0 1.00 1.00 wca
WARNING: Cosine/squared set to WCA only (cutoff = sigma) (../pair_cosine_squared.cpp:158)
pair_coeff     2 3 zero 1.50
pair_coeff     1 3 zero 1.50


fix            fGCMCext GMonomers gcmc 5 75 0  4  110  1.0 6.0 1.0  group Polymerisation0Group group Polymerisation1Group
run            10000
WARNING: No fixes with time integration, atoms won't move (../verlet.cpp:60)
Generated 0 of 6 mixed pair_coeff terms from geometric mixing rule
WARNING: Fix gcmc using full_energy option (../fix_gcmc.cpp:491)
ERROR: Cannot use fix gcmc in a 2d simulation (../fix_gcmc.cpp:566)
Last command: run            10000
